c --- [ banner ] -------------------------------------------------------------
c 
c CaDiCaL Radically Simplified CDCL SAT Solver
c Copyright (c) 2016-2021 A. Biere, M. Fleury, N. Froleyks
c 
c Version 1.5.2 a5f15211db36c3956764e18194dd5bd63bf3b5e6
c g++ (GCC) 9.3.0 -Wall -Wextra -O3 -DNDEBUG
c Fri Oct 21 01:27:37 EDT 2022 Linux gra-login3 3.10.0-1160.66.1.el7.x86_64 x86_64
c 
c --- [ limit ] --------------------------------------------------------------
c 
c setting conflict limit to 200000 conflicts (due to '200000')
c 
c --- [ parsing input ] ------------------------------------------------------
c 
c reading DIMACS file from '33.cubes746.adj'
c opening file to read '33.cubes746.adj'
c found 'p cnf 6160 1595479' header
c parsed 1595479 clauses in 18.74 seconds process time
c closing file '33.cubes746.adj'
c after reading 1457566802 bytes 1390.0 MB
c 
c --- [ options ] ------------------------------------------------------------
c 
c all options are set to their default value
c 
c --- [ solving ] ------------------------------------------------------------
c 
c time measured in process time since initialization
c 
c  seconds    reductions  redundant   irredundant
c          MB     restarts       trail       variables
c            level   conflicts       glue         remaining
c 
c * 18.74 1360  0 0   0    0    0  0% 0 1595422 2348 38%
c { 20.13 1420  0 0   0    0    0  0% 0 1595422 2348 38%
c i 20.86 1441 754 0   0   15   12 32% 1 1595422 2337 38%
c i 24.12 1501 317 0  11   62   54 30% 28 1595422 2336 38%
c i 24.16 1501 312 0  12   63   54 30% 28 1595422 2335 38%
c i 25.94 1509 212 0  23  105   90 28% 30 1595422 2334 38%
c i 25.95 1509 210 0  23  106   90 28% 30 1595422 2333 38%
c i 25.95 1509 208 0  23  107   90 28% 30 1595422 2332 38%
c i 25.96 1509 206 0  23  108   90 28% 29 1595422 2331 38%
c i 25.96 1509 204 0  23  109   90 28% 29 1595422 2330 38%
c i 25.96 1509 202 0  23  110   90 28% 29 1595422 2329 38%
c i 25.96 1509 200 0  23  111   90 28% 29 1595422 2328 38%
c i 26.52 1513 161 0  24  158  136 28% 32 1595422 2318 38%
c i 26.65 1513 158 0  25  162  139 28% 32 1595422 2317 38%
c i 27.14 1514 149 0  28  187  163 28% 32 1595422 2316 38%
c i 27.35 1514 130 0  32  223  185 27% 30 1595422 2309 37%
c i 27.35 1514 129 0  32  224  185 27% 30 1595422 2308 37%
c i 27.35 1514 129 0  32  225  185 27% 30 1595422 2307 37%
c i 27.51 1514 125 0  32  239  197 27% 30 1595422 2306 37%
c i 27.60 1514 123 0  32  244  200 27% 30 1595422 2305 37%
c 
c  seconds     reductions  redundant    irredundant
c          MB      restarts       trail        variables
c             level   conflicts       glue          remaining
c 
c i 27.69 1514 120 0  32  258  213 27% 30 1595422 2302 37%
c i 27.94 1515 120 0  32  268  221 27% 31 1595422 2301 37%
c i 28.21 1518 116 0  37  290  238 27% 31 1595422 2299 37%
c - 32.12 1430 113 1  37  301  247 27% 31 341724 2299 37%
c i 32.25 1400 112 1  37  302  247 27% 31 341724 2298 37%
c i 33.44 1369 83 1  37  505  399 27% 28 341724 2297 37%
c i 33.70 1369 79 1  40  558  440 27% 28 341724 2296 37%
c i 33.73 1369 79 1  40  561  442 27% 28 341724 2295 37%
c i 33.73 1369 78 1  40  564  444 27% 28 341724 2294 37%
c i 33.74 1369 78 1  40  565  444 27% 28 341724 2293 37%
c i 33.88 1369 79 1  40  573  451 27% 28 341724 2292 37%
c i 33.88 1369 79 1  40  575  452 27% 28 341724 2291 37%
c i 33.91 1369 79 1  40  578  454 27% 28 341724 2290 37%
c i 34.32 1369 79 1  43  617  490 27% 29 341724 2289 37%
c i 34.37 1369 79 1  44  623  495 27% 29 341724 2288 37%
c i 34.59 1369 76 1  45  666  532 27% 28 341724 2287 37%
c i 34.63 1369 75 1  45  673  538 27% 28 341724 2286 37%
c i 34.66 1369 75 1  45  677  541 27% 28 341724 2285 37%
c i 34.67 1369 75 1  45  681  544 27% 28 341724 2284 37%
c i 34.76 1369 75 1  46  692  551 27% 28 341724 2283 37%
c 
c  seconds    reductions  redundant   irredundant
c          MB     restarts       trail       variables
c            level   conflicts       glue         remaining
c 
c i 34.76 1369 75 1  46  694  552 27% 28 341724 2282 37%
c i 34.78 1369 75 1  46  695  552 27% 28 341724 2281 37%
c i 34.89 1369 74 1  46  722  572 27% 28 341724 2280 37%
c i 35.08 1369 73 1  48  763  611 27% 28 341724 2279 37%
c i 35.30 1369 66 1  48  923  732 27% 27 341724 2278 37%
c i 35.31 1369 65 1  48  925  733 27% 27 341724 2277 37%
c i 35.31 1369 65 1  48  927  734 27% 27 341724 2276 37%
c i 35.33 1369 65 1  48  929  735 27% 27 341724 2275 37%
c i 35.35 1369 66 1  48  933  736 27% 27 341724 2272 37%
c i 35.57 1369 68 1  48  979  773 27% 26 341724 2271 37%
c } 35.63 1369 69 1  48 1000  791 27% 26 341724 2271 37%
c [ 35.63 1369  0 1  48 1000  791  0% 0 341724 2271 37%
c O 35.64 1369 82 1  48 1003  794 21% 7 341724 2271 37%
c i 35.80 1369 18 1  48 1034  806 21% 7 341724 2270 37%
c i 35.86 1369 19 1  48 1044  813 23% 9 341724 2269 37%
c i 35.88 1369 19 1  48 1046  814 24% 9 341724 2268 37%
c i 35.95 1369 21 1  48 1060  827 26% 12 341724 2267 37%
c i 35.97 1369 23 1  48 1072  838 27% 14 341724 2266 37%
c i 35.98 1369 23 1  48 1078  842 27% 14 341724 2265 37%
c i 35.99 1369 22 1  48 1083  846 27% 15 341724 2264 37%
c 
c  seconds    reductions  redundant   irredundant
c          MB     restarts       trail       variables
c            level   conflicts       glue         remaining
c 
c i 36.05 1369 23 1  48 1112  870 29% 16 341724 2263 37%
c i 36.05 1369 23 1  48 1117  874 29% 16 341724 2262 37%
c i 36.07 1369 23 1  48 1130  884 29% 17 341724 2261 37%
c i 36.17 1369 24 1  48 1140  893 29% 17 341724 2260 37%
c i 36.17 1369 23 1  48 1141  893 29% 17 341724 2259 37%
c i 36.17 1369 23 1  48 1142  893 29% 17 341724 2258 37%
c i 36.17 1369 23 1  48 1145  895 29% 17 341724 2257 37%
c i 36.17 1369 23 1  48 1146  895 29% 17 341724 2256 37%
c i 36.17 1369 23 1  48 1147  895 29% 17 341724 2255 37%
c i 36.18 1369 22 1  48 1150  897 29% 16 341724 2254 37%
c i 36.18 1369 22 1  48 1151  897 29% 16 341724 2253 37%
c i 36.22 1369 22 1  48 1161  905 29% 16 341724 2252 37%
c i 36.22 1369 22 1  48 1166  909 29% 16 341724 2251 37%
c i 36.27 1369 22 1  48 1181  923 30% 16 341724 2250 37%
c i 36.29 1369 22 1  48 1195  935 30% 17 341724 2249 37%
c i 36.30 1369 22 1  48 1210  947 30% 17 341724 2248 36%
c i 36.31 1369 22 1  48 1211  947 30% 17 341724 2247 36%
c - 37.00 1494 22 2  48 1221  828 30% 17 341576 2247 36%
c i 37.10 1494 22 2  48 1227  833 30% 17 341576 2246 36%
c i 37.31 1494 22 2  48 1279  878 31% 18 341576 2245 36%
c 
c  seconds    reductions  redundant   irredundant
c          MB     restarts       trail       variables
c            level   conflicts       glue         remaining
c 
c i 37.38 1494 23 2  48 1296  892 31% 18 341576 2244 36%
c i 37.44 1494 23 2  48 1315  910 31% 18 341576 2243 36%
c i 37.47 1494 23 2  48 1324  915 31% 18 341576 2242 36%
c i 37.50 1494 23 2  48 1337  927 31% 18 341576 2241 36%
c i 37.52 1494 23 2  48 1344  932 31% 18 341576 2240 36%
c i 37.61 1494 23 2  48 1393  966 31% 18 341576 2239 36%
c i 37.62 1494 23 2  48 1399  970 31% 18 341576 2238 36%
c i 37.62 1494 23 2  48 1400  970 31% 18 341576 2237 36%
c i 37.66 1494 23 2  48 1421  986 31% 18 341576 2236 36%
c i 37.79 1494 23 2  48 1523 1074 31% 19 341576 2235 36%
c i 37.79 1494 23 2  48 1524 1074 31% 19 341576 2234 36%
c i 37.83 1494 24 2  48 1544 1090 31% 19 341576 2233 36%
c i 37.85 1494 24 2  48 1554 1098 31% 19 341576 2232 36%
c i 37.87 1494 24 2  48 1579 1120 31% 19 341576 2231 36%
c i 37.87 1494 24 2  48 1581 1121 31% 19 341576 2230 36%
c i 38.04 1494 23 2  48 1808 1314 31% 19 341576 2229 36%
c i 38.08 1494 23 2  48 1843 1334 31% 19 341576 2228 36%
c i 38.08 1494 23 2  48 1844 1334 31% 19 341576 2227 36%
c i 38.09 1494 23 2  48 1845 1334 31% 19 341576 2226 36%
c i 38.11 1494 23 2  48 1874 1357 31% 19 341576 2225 36%
c 
c  seconds    reductions  redundant   irredundant
c          MB     restarts       trail       variables
c            level   conflicts       glue         remaining
c 
c i 38.24 1494 22 2  48 1997 1435 31% 19 341576 2224 36%
c i 38.56 1494 24 2  49 2229 1607 32% 20 341576 2223 36%
c i 38.69 1494 24 2  49 2330 1684 32% 20 341576 2222 36%
c i 39.01 1494 23 2  49 2593 1901 32% 20 341576 2221 36%
c - 39.49 1489 23 3  49 2601 1438 32% 20 341500 2221 36%
c i 39.80 1489 23 3  49 2605 1441 51% 19 341500 2220 36%
c i 40.27 1489 22 3  49 2800 1561 51% 19 341500 2219 36%
c i 40.34 1489 22 3  49 2843 1596 52% 19 341500 2218 36%
c ] 40.52 1489 22 3  49 3000 1705 52% 19 341500 2218 36%
c { 40.52 1489 69 3  49 3000 1705 76% 26 341500 2218 36%
c F 40.54 1489 69 3  49 3005 1710 75% 26 341500 2218 36%
c i 40.55 1489 69 3  49 3008 1712 75% 26 341500 2217 36%
c i 40.55 1489 69 3  49 3009 1712 75% 26 341500 2216 36%
c i 40.79 1489 67 3  49 3048 1735 74% 25 341500 2215 36%
c i 41.79 1489 66 3  66 3145 1823 71% 26 341500 2214 36%
c i 41.92 1489 66 3  69 3172 1843 70% 26 341500 2213 36%
c i 41.92 1489 66 3  69 3173 1843 70% 26 341500 2212 36%
c i 41.92 1489 66 3  69 3174 1843 70% 26 341500 2211 36%
c i 41.92 1489 66 3  69 3175 1843 70% 26 341500 2210 36%
c i 41.92 1489 66 3  69 3176 1843 70% 26 341500 2209 36%
c 
c  seconds    reductions  redundant   irredundant
c          MB     restarts       trail       variables
c            level   conflicts       glue         remaining
c 
c i 41.92 1489 66 3  69 3177 1843 70% 26 341500 2208 36%
c i 41.93 1489 66 3  69 3181 1846 70% 26 341500 2207 36%
c i 41.94 1489 66 3  69 3184 1848 70% 26 341500 2206 36%
c i 42.17 1489 65 3  72 3227 1886 69% 26 341500 2205 36%
c i 42.49 1489 66 3  82 3269 1924 68% 27 341500 2204 36%
c i 43.08 1489 66 3  91 3330 1978 66% 27 341500 2203 36%
c i 43.24 1489 66 3  91 3341 1988 66% 27 341500 2202 36%
c i 43.49 1489 64 3  91 3458 2083 65% 26 341500 2201 36%
c i 43.66 1489 58 3  91 3810 2362 62% 26 341500 2200 36%
c i 45.23 1489 52 3 122 4426 2874 57% 25 341500 2199 36%
c - 45.69 1485 52 4 122 4441 2027 57% 25 341436 2199 36%
c 2 47.13 1485 48 4 143 5003 3337 55% 24 341393 2185 35%
c p 52.00 1485 48 4 143 5003 5252 55% 24 341393 2157 35%
c d 52.43 1485 48 4 143 5003 5027 55% 24 341144 2155 35%
c # 53.58 1485 42 4 143 6006 5851 54% 23 341144 2155 35%
c - 55.39 1483 39 5 156 6740 2781 52% 22 341144 2155 35%
c } 55.63 1483 38 5 156 7000 2961 52% 22 341144 2155 35%
c [ 55.63 1483 22 5 156 7000 2961 52% 19 341144 2155 35%
c - 57.67 1371 23 6 158 9499 3200 50% 20 341144 2155 35%
c I 58.19 1371 23 6 158 10008 3551 50% 19 341144 2155 35%
c 
c  seconds    reductions   redundant   irredundant
c          MB     restarts        trail       variables
c            level    conflicts       glue         remaining
c 
c - 63.83 1372 24 7 160 12720 3683 48% 19 341144 2155 35%
c ] 70.72 1372 25 7 161 15001 5304 47% 21 341144 2155 35%
c { 70.72 1372 38 7 161 15001 5304 52% 22 341144 2155 35%
c 2 70.86 1372 38 7 161 15011 6285 52% 22 341143 2155 35%
c p 72.37 1372 38 7 161 15011 8304 52% 22 341143 2155 35%
c B 72.51 1372 38 7 161 15012 8305 52% 22 341143 2155 35%
c - 79.55 1374 39 8 316 16401 4604 49% 22 341143 2155 35%
c s 82.21 1374 34 8 320 18821 6319 50% 21 338585 2155 35%
c v 88.95 1374 34 8 320 18821 6319 50% 21 338573 2155 35%
c t 89.10 1374 34 8 320 18821 6302 50% 21 338560 2155 35%
c e 90.22 1376 34 8 320 18821 5821 50% 21 335977 781 13%
c s 90.36 1376 34 8 320 18821 5819 50% 21 335804 781 13%
c } 92.64 1377 33 8 320 19613 6450 73% 20 335804 781 13%
c 1 92.64 1377 33 8 320 19613 6450 73% 20 335804 781 13%
c 
c --- [ writing output ] -----------------------------------------------------
c 
c writing simplified CNF to DIMACS file 'simp/33.cubes746.adj.simp1'
c * 92.64 1377 33 8 320 19613 6450 73% 20 335804 781 13%
c opening file to write 'simp/33.cubes746.adj.simp1'
c writing 'p cnf 6160 335804' header
c closing file 'simp/33.cubes746.adj.simp1'
c after writing 124949856 bytes 119.2 MB
c wrote 335804 clauses in 0.89 seconds process time
c 
c --- [ writing extension ] --------------------------------------------------
c 
c writing extension stack to 'simp/33.cubes746.adj.ext1'
c opening file to write 'simp/33.cubes746.adj.ext1'
c closing file 'simp/33.cubes746.adj.ext1'
c after writing 88911 bytes 0.1 MB
c wrote 3994 witnesses in 0.00 seconds process time
c 
c --- [ result ] -------------------------------------------------------------
c 
s SATISFIABLE
c 
c --- [ run-time profiling ] -------------------------------------------------
c 
c process time taken by individual solving procedures
c (percentage relative to process time for solving)
c 
c        57.14   77.31% search
c        35.76   48.39% unstable
c        19.98   27.04% stable
c        18.74   25.35% parse
c        16.77   22.69% simplify
c         6.84    9.26% vivify
c         6.37    8.63% probe
c         2.12    2.87% elim
c         1.39    1.88% lucky
c         0.29    0.40% subsume
c         0.12    0.16% ternary
c   =================================
c        73.90   79.01% solve
c 
c last line shows process time for solving
c (percentage relative to total process time)
c 
c --- [ statistics ] ---------------------------------------------------------
c 
c chronological:              3948        20.13 %  of conflicts
c conflicts:                 19613       265.39    per second
c decisions:                 52328       708.06    per second
c eliminated:                 1374        22.31 %  of all variables
c fixed:                       845        13.72 %  of all variables
c learned:                   19257        98.18 %  per conflict
c learned_lits:            3167007       100.00 %  learned literals
c minimized:                     0         0.00 %  learned literals
c shrunken:                1495648        47.23 %  learned literals
c minishrunken:             382070        12.06 %  learned literals
c propagations:            2961002         0.04 M  per second
c reduced:                    7799        39.76 %  per conflict
c rephased:                      5      3922.60    interval
c restarts:                    320        61.29    interval
c stabilizing:                   2        50.99 %  of conflicts
c substituted:                  16         0.26 %  of all variables
c subsumed:                   7294         0.21 %  of all clauses
c strengthened:               8295         0.23 %  of all clauses
c ternary:                    1835         0.54 %  of resolved
c vivified:                     27         0.00 %  of all clauses
c weakened:                   3149         2.97    average size
c 
c seconds are measured in process time for solving
c 
c --- [ resources ] ----------------------------------------------------------
c 
c total process time since initialization:        93.53    seconds
c total real time since initialization:           93.90    seconds
c maximum resident set size of process:         1614.33    MB
c 
c --- [ shutting down ] ------------------------------------------------------
c 
c exit 10
WARNING! DIMACS header mismatch: wrong number of variables.
============================[ Problem Statistics ]=============================
|                                                                             |
|  Number of variables:          6111                                         |
|  Number of clauses:          335806                                         |
|  Parse time:                   1.60 s                                       |
|  Simplification time:          0.03 s                                       |
|                                                                             |
============================[ Search Statistics ]====================================================
| Conflicts |          ORIGINAL         |          LEARNT          | Num Sols |      SUBGRAPHS      |
|           |    Vars  Clauses Literals |    Limit  Clauses Lit/Cl |          | Canonical Noncanon. |
=====================================================================================================
|       171 |    6018   335877 27799911 |     2000      171     17 |        0 |        31        71 |
|       344 |    6018   335900 27800489 |     2000      344     44 |        0 |        42        94 |
|       647 |    6018   335978 27802266 |     2000      647     54 |        0 |        82       172 |
|      1017 |    6018   336011 27802987 |     2000     1017     67 |        0 |       115       205 |
|      1543 |    6018   336031 27803506 |     2000     1543     74 |        0 |       150       225 |
|      2360 |    6018   336089 27805241 |     3604     1364     57 |        0 |       195       283 |
|      3623 |    6018   336213 27807974 |     3604     2627     72 |        0 |       237       407 |
|      5676 |    6018   336558 27815628 |     5004     2880     53 |        0 |       412       752 |
|      8536 |    6018   336856 27820579 |     6302     3238     50 |        0 |       518      1050 |
|     14615 |    6018   339091 27863448 |     7556     6171     38 |        0 |      1151      3285 |
|     21248 |    6018   339958 27883184 |     9994     4642     27 |        0 |      1555      4152 |
|     34849 |    6018   344910 27970152 |    12403     7652     38 |        0 |      2646      9104 |
|     54878 |    6018   351965 28092050 |    14811    14689     59 |        0 |      4239     16159 |
|     80350 |    6018   357976 28213333 |    18419    16169     48 |        0 |      5925     22170 |
|    115699 |    6018   364133 28316470 |    23214    11113     23 |        0 |      8049     28327 |
|    169617 |    6018   374262 28481966 |    28019    15036     29 |        0 |     11602     38456 |
|    261283 |    6018   400244 28885027 |    34012    30695     52 |        0 |     15316     64438 |
|    371243 |    6018   411678 29040366 |    41210    29653     39 |        0 |     20006     75872 |
|    556145 |    6018   448791 29593453 |    50806    32951     41 |        0 |     33251    112985 |
|    857839 |    6018   528802 30626868 |    62822    53661     39 |        0 |     57362    192996 |
|   1268457 |    6018   606895 31643187 |    77216    47873     36 |        0 |     89692    271089 |
|   1890380 |    6018   730030 33187730 |    94028    74808     46 |        0 |    135528    394224 |
=====================================================================================================
Number of solutions   : 0
Canonical subgraphs   : 165692         (47 /sec)
          order  3    : 1              (166667 /sec)
          order  4    : 1              (500000 /sec)
          order  5    : 1              (200000 /sec)
          order  6    : 1              (50000 /sec)
          order  7    : 1              (8264 /sec)
          order  8    : 2              (1391 /sec)
          order  9    : 7              (352 /sec)
          order 10    : 36             (119 /sec)
          order 11    : 256            (86 /sec)
          order 12    : 1872           (56 /sec)
          order 13    : 16741          (57 /sec)
          order 14    : 31573          (61 /sec)
          order 15    : 45083          (51 /sec)
          order 16    : 32425          (41 /sec)
          order 17    : 26540          (39 /sec)
          order 18    : 7621           (37 /sec)
          order 19    : 2716           (37 /sec)
          order 20    : 490            (48 /sec)
          order 21    : 325            (55 /sec)
          order 22    : 0              (-nan /sec)
Noncanonical subgraphs: 467901         (412 /sec)
          order  3    : 0              (-nan /sec)
          order  4    : 0              (-nan /sec)
          order  5    : 0              (-nan /sec)
          order  6    : 0              (-nan /sec)
          order  7    : 0              (-nan /sec)
          order  8    : 0              (-nan /sec)
          order  9    : 0              (-nan /sec)
          order 10    : 0              (-nan /sec)
          order 11    : 0              (-nan /sec)
          order 12    : 0              (-nan /sec)
          order 13    : 33407          (2813 /sec)
          order 14    : 362783         (416 /sec)
          order 15    : 54438          (401 /sec)
          order 16    : 16767          (153 /sec)
          order 17    : 145            (718 /sec)
          order 18    : 5              (1322 /sec)
          order 19    : 7              (777 /sec)
          order 20    : 0              (-nan /sec)
          order 21    : 0              (-nan /sec)
Canonicity checking   : 3500.34 s
Noncanonicity checking: 1135.96 s
Total canonicity time : 4636.3 s
database reductions   : 85
restarts              : 4095
conflicts             : 2319488        (377 /sec)
decisions             : 3294151        (0.00 % random) (535 /sec)
propagations          : 109871235      (17835 /sec)
conflict literals     : 198301620      (52.56 % deleted)
actual reward         : 0.271211
Memory used           : 485.00 MB
CPU time              : 6160.32 s

UNSATISFIABLE
